p wcnf 117 176 177 
1 -92 -9 0 
1 -61 64 0 
1 80 -20 0 
1 -38 -59 0 
1 33 -55 0 
1 -62 36 0 
1 -117 -19 0 
1 -69 -114 0 
1 42 110 0 
1 91 -24 0 
1 15 -65 0 
1 101 82 0 
1 116 -104 0 
1 1 31 0 
1 -61 62 0 
1 -58 108 0 
1 106 68 0 
1 -2 71 0 
1 -15 -47 0 
1 -72 10 0 
1 55 40 0 
1 -102 -81 0 
1 -61 33 0 
1 -73 -3 0 
1 34 -48 0 
1 -45 -82 0 
1 -103 -72 0 
1 47 62 0 
1 -31 -65 0 
1 -99 -86 0 
1 54 -115 0 
1 -102 99 0 
1 -111 -30 0 
1 72 92 0 
1 -78 -68 0 
1 109 49 0 
1 10 99 0 
1 -22 53 0 
1 110 109 0 
1 72 -91 0 
1 -69 -66 0 
1 69 2 0 
1 96 -68 0 
1 -51 86 0 
1 44 -85 0 
1 -21 -9 0 
1 75 -29 0 
1 75 54 0 
1 -101 31 0 
1 -62 -45 0 
1 -96 83 0 
1 116 61 0 
1 109 -46 0 
1 -4 -44 0 
1 89 -70 0 
1 -29 -13 0 
1 35 76 0 
1 50 33 0 
1 -15 -80 0 
1 14 -26 0 
1 52 -62 0 
1 65 -109 0 
1 -54 -58 0 
1 -87 18 0 
1 109 -35 0 
1 39 64 0 
1 45 -65 0 
1 -74 -117 0 
1 -44 -33 0 
1 50 -8 0 
1 56 5 0 
1 -72 37 0 
1 44 -11 0 
1 31 100 0 
1 -48 15 0 
1 -105 104 0 
1 -65 -6 0 
1 -73 19 0 
1 -28 -109 0 
1 19 -68 0 
1 -9 -27 0 
1 -31 -105 0 
1 -85 -16 0 
1 -104 -74 0 
1 -23 -20 0 
1 -1 105 0 
1 -10 -93 0 
1 86 -90 0 
1 94 85 0 
1 74 111 0 
1 -35 58 0 
1 -62 -39 0 
1 87 -14 0 
1 23 99 0 
1 -86 -41 0 
1 82 -7 0 
1 36 -1 0 
1 22 75 0 
1 64 80 0 
1 -77 -103 0 
1 -45 4 0 
1 -14 28 0 
1 42 -105 0 
1 -78 -111 0 
1 -90 106 0 
1 -104 -80 0 
1 -111 79 0 
1 -8 -77 0 
1 -83 39 0 
1 62 44 0 
1 39 -42 0 
1 90 -25 0 
1 83 18 0 
1 -85 65 0 
1 -71 59 0 
1 -59 -77 0 
1 -79 -26 0 
1 19 -44 0 
1 103 -32 0 
1 -109 99 0 
1 -96 103 0 
1 -12 -93 0 
1 -99 114 0 
1 -75 -3 0 
1 -42 -111 0 
1 68 58 0 
1 -39 -110 0 
1 92 13 0 
1 -65 28 0 
1 96 -26 0 
1 30 -35 0 
1 46 -109 0 
1 48 -56 0 
1 84 -32 0 
1 15 -44 0 
1 -15 -76 0 
1 -34 -66 0 
1 109 -22 0 
1 101 -56 0 
1 -78 -25 0 
1 -104 -52 0 
1 -75 -14 0 
1 -79 -53 0 
1 -64 40 0 
1 77 -102 0 
1 -68 -12 0 
1 -35 -14 0 
1 -45 -117 0 
1 52 33 0 
1 90 -91 0 
1 -81 74 0 
1 94 81 0 
1 55 94 0 
1 48 -79 0 
1 80 110 0 
1 -65 89 0 
1 -6 97 0 
1 6 -106 0 
1 8 -75 0 
1 -13 -90 0 
1 -33 95 0 
1 34 116 0 
1 -15 -53 0 
1 -74 -114 0 
1 -90 65 0 
1 99 88 0 
1 -79 -116 0 
1 40 13 0 
1 108 -65 0 
1 -69 9 0 
1 -106 21 0 
1 108 -52 0 
1 54 98 0 
1 74 -61 0 
1 88 -30 0 
1 -103 -3 0 
